
List of user-set options:

                                    Name   Value                used
                   hessian_approximation = limited-memory        yes
                           linear_solver = ma57                  yes
                  ma57_automatic_scaling = yes                   yes
                                max_iter = 1000                  yes
                             mu_strategy = adaptive              yes
                             output_file = TreatmentOptimizationIPOPTinfo.txt  yes
                             print_level = 5                     yes
                      print_user_options = yes                   yes
                                     tol = 0.001                 yes
This is Ipopt version 3.12.9, running with linear solver ma57.

Number of nonzeros in equality constraint Jacobian...:   145982
Number of nonzeros in inequality constraint Jacobian.:    46200
Number of nonzeros in Lagrangian Hessian.............:        0

Exception of type: IpoptException in file "Unknown File" at line -1:
 Exception message: Unknown Exception caught in Ipopt
